(set-info :smt-lib-version 2.6)
(set-logic UF)
(set-info :source |Benchmarks from the paper: "Extending Sledgehammer with SMT Solvers" by Jasmin Blanchette, Sascha Bohme, and Lawrence C. Paulson, CADE 2011.  Translated to SMT2 by Andrew Reynolds and Morgan Deters.|)
(set-info :category "industrial")
(set-info :status unknown)
(declare-sort S1 0)
(declare-sort S2 0)
(declare-sort S3 0)
(declare-sort S4 0)
(declare-sort S5 0)
(declare-sort S6 0)
(declare-sort S7 0)
(declare-sort S8 0)
(declare-sort S9 0)
(declare-sort S10 0)
(declare-sort S11 0)
(declare-sort S12 0)
(declare-sort S13 0)
(declare-sort S14 0)
(declare-sort S15 0)
(declare-fun f1 () S1)
(declare-fun f2 () S1)
(declare-fun f3 (S2 S2) S1)
(declare-fun f4 () S2)
(declare-fun f5 (S3 S2) S2)
(declare-fun f6 (S4 S2) S3)
(declare-fun f7 () S4)
(declare-fun f8 () S4)
(declare-fun f9 () S3)
(declare-fun f10 () S4)
(declare-fun f11 () S2)
(declare-fun f12 () S2)
(declare-fun f13 (S5 S6) S2)
(declare-fun f14 () S5)
(declare-fun f15 (S7 S6) S6)
(declare-fun f16 () S7)
(declare-fun f17 () S7)
(declare-fun f18 () S6)
(declare-fun f19 () S4)
(declare-fun f20 (S8 S9) S2)
(declare-fun f21 () S8)
(declare-fun f22 (S10 S2) S9)
(declare-fun f23 (S11 S2) S10)
(declare-fun f24 () S11)
(declare-fun f25 () S2)
(declare-fun f26 (S12 S9) S9)
(declare-fun f27 (S13 S9) S12)
(declare-fun f28 () S13)
(declare-fun f29 (S14 S6) S9)
(declare-fun f30 () S14)
(declare-fun f31 () S13)
(declare-fun f32 (S15 S6) S7)
(declare-fun f33 () S15)
(declare-fun f34 () S7)
(declare-fun f35 () S15)
(declare-fun f36 () S13)
(declare-fun f37 () S9)
(declare-fun f38 () S2)
(declare-fun f39 () S15)
(declare-fun f40 () S13)
(declare-fun f41 () S6)
(declare-fun f42 (S6 S6) S1)
(declare-fun f43 () S9)
(declare-fun f44 () S3)
(declare-fun f45 () S3)
(assert (not (= f1 f2)))
(assert (not (= (f3 f4 (f5 (f6 f7 (f5 (f6 f8 (f5 f9 (f5 (f6 f8 (f5 (f6 f10 f11) f11)) (f5 (f6 f10 f12) f12)))) f11)) (f13 f14 (f15 f16 (f15 f17 f18))))) f1)))
(assert (= (f3 f4 (f5 (f6 f19 (f20 f21 (f22 (f23 f24 f11) f12))) f11)) f1))
(assert (= (f3 f4 (f5 (f6 f8 (f20 f21 (f22 (f23 f24 f11) f12))) f11)) f1))
(assert (not (= f25 f4)))
(assert (= (f3 f4 (f5 (f6 f8 (f20 f21 (f22 (f23 f24 f11) f12))) f11)) f1))
(assert (= (f3 f4 (f5 (f6 f19 (f20 f21 (f22 (f23 f24 f11) f12))) f11)) f1))
(assert (= (f3 f4 (f5 f9 (f13 f14 (f15 f16 (f15 f17 f18))))) f1))
(assert (forall ((?v0 S2)) (let ((?v_0 (f5 (f6 f7 ?v0) (f13 f14 (f15 f16 (f15 f17 f18)))))) (= (f5 (f6 f8 ?v_0) ?v_0) ?v0))))
(assert (forall ((?v0 S2) (?v1 S2) (?v2 S2)) (let ((?v_1 (f6 f7 ?v1)) (?v_0 (f6 f10 (f13 f14 (f15 f16 (f15 f17 f18)))))) (= (= ?v0 (f5 ?v_1 (f5 ?v_0 ?v2))) (= (f5 ?v_0 ?v0) (f5 ?v_1 ?v2))))))
(assert (forall ((?v0 S9)) (= (f26 (f27 f28 ?v0) (f29 f30 (f15 f16 (f15 f17 f18)))) (f26 (f27 f31 ?v0) ?v0))))
(assert (forall ((?v0 S2)) (= (f5 (f6 f10 ?v0) (f13 f14 (f15 f16 (f15 f17 f18)))) (f5 (f6 f8 ?v0) ?v0))))
(assert (forall ((?v0 S6)) (= (f15 (f32 f33 ?v0) (f15 f34 (f15 f16 (f15 f17 f18)))) (f15 (f32 f35 ?v0) ?v0))))
(assert (forall ((?v0 S9)) (= (f26 (f27 f28 ?v0) (f29 f30 (f15 f16 (f15 f17 f18)))) (f26 (f27 f31 ?v0) ?v0))))
(assert (forall ((?v0 S2)) (= (f5 (f6 f10 ?v0) (f13 f14 (f15 f16 (f15 f17 f18)))) (f5 (f6 f8 ?v0) ?v0))))
(assert (forall ((?v0 S6)) (= (f15 (f32 f33 ?v0) (f15 f34 (f15 f16 (f15 f17 f18)))) (f15 (f32 f35 ?v0) ?v0))))
(assert (forall ((?v0 S9)) (= (f26 (f27 f28 (f29 f30 (f15 f16 (f15 f17 f18)))) ?v0) (f26 (f27 f31 ?v0) ?v0))))
(assert (forall ((?v0 S2)) (= (f5 (f6 f10 (f13 f14 (f15 f16 (f15 f17 f18)))) ?v0) (f5 (f6 f8 ?v0) ?v0))))
(assert (forall ((?v0 S6)) (= (f15 (f32 f33 (f15 f34 (f15 f16 (f15 f17 f18)))) ?v0) (f15 (f32 f35 ?v0) ?v0))))
(assert (forall ((?v0 S9)) (= (f26 (f27 f28 (f29 f30 (f15 f16 (f15 f17 f18)))) ?v0) (f26 (f27 f31 ?v0) ?v0))))
(assert (forall ((?v0 S2)) (= (f5 (f6 f10 (f13 f14 (f15 f16 (f15 f17 f18)))) ?v0) (f5 (f6 f8 ?v0) ?v0))))
(assert (forall ((?v0 S6)) (= (f15 (f32 f33 (f15 f34 (f15 f16 (f15 f17 f18)))) ?v0) (f15 (f32 f35 ?v0) ?v0))))
(assert (forall ((?v0 S2) (?v1 S2)) (= (f3 f4 (f5 f9 (f5 (f6 f8 (f5 (f6 f10 ?v0) ?v0)) (f5 (f6 f10 ?v1) ?v1)))) f1)))
(assert (forall ((?v0 S2) (?v1 S2)) (= (f3 ?v0 (f5 f9 (f5 (f6 f8 (f5 (f6 f10 ?v0) ?v0)) (f5 (f6 f10 ?v1) ?v1)))) f1)))
(assert (forall ((?v0 S9)) (= (f26 (f27 f36 ?v0) (f29 f30 (f15 f17 f18))) ?v0)))
(assert (forall ((?v0 S2)) (= (f5 (f6 f7 ?v0) (f13 f14 (f15 f17 f18))) ?v0)))
(assert (forall ((?v0 S9)) (= (f26 (f27 f36 ?v0) (f29 f30 (f15 f17 f18))) ?v0)))
(assert (forall ((?v0 S2)) (= (f5 (f6 f7 ?v0) (f13 f14 (f15 f17 f18))) ?v0)))
(assert (forall ((?v0 S2)) (= (f5 (f6 f10 ?v0) (f13 f14 (f15 f17 f18))) ?v0)))
(assert (forall ((?v0 S6)) (= (f15 (f32 f33 ?v0) (f15 f34 (f15 f17 f18))) ?v0)))
(assert (forall ((?v0 S9)) (= (f26 (f27 f28 ?v0) (f29 f30 (f15 f17 f18))) ?v0)))
(assert (= f37 (f22 (f23 f24 f38) f25)))
(assert (forall ((?v0 S6) (?v1 S6)) (= (f13 f14 (f15 (f32 f39 ?v0) ?v1)) (f5 (f6 f19 (f13 f14 ?v0)) (f13 f14 ?v1)))))
(assert (forall ((?v0 S6) (?v1 S6)) (= (f15 f34 (f15 (f32 f39 ?v0) ?v1)) (f15 (f32 f39 (f15 f34 ?v0)) (f15 f34 ?v1)))))
(assert (forall ((?v0 S6) (?v1 S6)) (= (f29 f30 (f15 (f32 f39 ?v0) ?v1)) (f26 (f27 f40 (f29 f30 ?v0)) (f29 f30 ?v1)))))
(assert (forall ((?v0 S6)) (= (f15 (f32 f35 ?v0) f18) ?v0)))
(assert (forall ((?v0 S6)) (= (f15 (f32 f35 f18) ?v0) ?v0)))
(assert (forall ((?v0 S6) (?v1 S6)) (= (f15 (f32 f35 (f15 f16 ?v0)) (f15 f16 ?v1)) (f15 f16 (f15 (f32 f35 ?v0) ?v1)))))
(assert (forall ((?v0 S6)) (= (f15 f16 ?v0) (f15 (f32 f35 ?v0) ?v0))))
(assert (forall ((?v0 S6)) (= (f15 (f32 f33 f18) ?v0) f18)))
(assert (forall ((?v0 S6) (?v1 S6)) (= (f15 (f32 f33 (f15 f16 ?v0)) ?v1) (f15 f16 (f15 (f32 f33 ?v0) ?v1)))))
(assert (forall ((?v0 S6) (?v1 S6)) (= (f15 (f32 f33 (f15 f17 ?v0)) ?v1) (f15 (f32 f35 (f15 f16 (f15 (f32 f33 ?v0) ?v1))) ?v1))))
(assert (forall ((?v0 S6) (?v1 S6)) (= (f15 (f32 f35 (f15 f17 ?v0)) (f15 f16 ?v1)) (f15 f17 (f15 (f32 f35 ?v0) ?v1)))))
(assert (forall ((?v0 S6) (?v1 S6)) (= (f15 (f32 f35 (f15 f16 ?v0)) (f15 f17 ?v1)) (f15 f17 (f15 (f32 f35 ?v0) ?v1)))))
(assert (forall ((?v0 S9) (?v1 S9) (?v2 S9) (?v3 S9)) (= (f26 (f27 f40 (f26 (f27 f31 ?v0) ?v1)) (f26 (f27 f31 ?v2) ?v3)) (f26 (f27 f31 (f26 (f27 f40 ?v0) ?v2)) (f26 (f27 f40 ?v1) ?v3)))))
(assert (forall ((?v0 S2) (?v1 S2) (?v2 S2) (?v3 S2)) (= (f5 (f6 f19 (f5 (f6 f8 ?v0) ?v1)) (f5 (f6 f8 ?v2) ?v3)) (f5 (f6 f8 (f5 (f6 f19 ?v0) ?v2)) (f5 (f6 f19 ?v1) ?v3)))))
(assert (forall ((?v0 S6) (?v1 S6) (?v2 S6) (?v3 S6)) (= (f15 (f32 f39 (f15 (f32 f35 ?v0) ?v1)) (f15 (f32 f35 ?v2) ?v3)) (f15 (f32 f35 (f15 (f32 f39 ?v0) ?v2)) (f15 (f32 f39 ?v1) ?v3)))))
(assert (forall ((?v0 S6) (?v1 S6)) (= (= (f29 f30 ?v0) (f29 f30 ?v1)) (= ?v0 ?v1))))
(assert (forall ((?v0 S6) (?v1 S6)) (= (= (f13 f14 ?v0) (f13 f14 ?v1)) (= ?v0 ?v1))))
(assert (forall ((?v0 S6) (?v1 S6)) (= (= (f15 f34 ?v0) (f15 f34 ?v1)) (= ?v0 ?v1))))
(assert (forall ((?v0 S6) (?v1 S9)) (let ((?v_0 (f29 f30 ?v0))) (= (= ?v_0 ?v1) (= ?v1 ?v_0)))))
(assert (forall ((?v0 S6) (?v1 S2)) (let ((?v_0 (f13 f14 ?v0))) (= (= ?v_0 ?v1) (= ?v1 ?v_0)))))
(assert (forall ((?v0 S6) (?v1 S6)) (let ((?v_0 (f15 f34 ?v0))) (= (= ?v_0 ?v1) (= ?v1 ?v_0)))))
(assert (forall ((?v0 S6) (?v1 S6)) (= (= (f15 f17 ?v0) (f15 f17 ?v1)) (= ?v0 ?v1))))
(assert (= (= f18 f18) true))
(assert (forall ((?v0 S2) (?v1 S2) (?v2 S6)) (let ((?v_0 (f13 f14 ?v2))) (= (f5 (f6 f10 (f5 (f6 f19 ?v0) ?v1)) ?v_0) (f5 (f6 f19 (f5 (f6 f10 ?v0) ?v_0)) (f5 (f6 f10 ?v1) ?v_0))))))
(assert (forall ((?v0 S6) (?v1 S6) (?v2 S6)) (let ((?v_0 (f15 f34 ?v2))) (= (f15 (f32 f33 (f15 (f32 f39 ?v0) ?v1)) ?v_0) (f15 (f32 f39 (f15 (f32 f33 ?v0) ?v_0)) (f15 (f32 f33 ?v1) ?v_0))))))
(assert (forall ((?v0 S9) (?v1 S9) (?v2 S6)) (let ((?v_0 (f29 f30 ?v2))) (= (f26 (f27 f28 (f26 (f27 f40 ?v0) ?v1)) ?v_0) (f26 (f27 f40 (f26 (f27 f28 ?v0) ?v_0)) (f26 (f27 f28 ?v1) ?v_0))))))
(assert (forall ((?v0 S6) (?v1 S2) (?v2 S2)) (let ((?v_0 (f6 f10 (f13 f14 ?v0)))) (= (f5 ?v_0 (f5 (f6 f19 ?v1) ?v2)) (f5 (f6 f19 (f5 ?v_0 ?v1)) (f5 ?v_0 ?v2))))))
(assert (forall ((?v0 S6) (?v1 S6) (?v2 S6)) (let ((?v_0 (f32 f33 (f15 f34 ?v0)))) (= (f15 ?v_0 (f15 (f32 f39 ?v1) ?v2)) (f15 (f32 f39 (f15 ?v_0 ?v1)) (f15 ?v_0 ?v2))))))
(assert (forall ((?v0 S6) (?v1 S9) (?v2 S9)) (let ((?v_0 (f27 f28 (f29 f30 ?v0)))) (= (f26 ?v_0 (f26 (f27 f40 ?v1) ?v2)) (f26 (f27 f40 (f26 ?v_0 ?v1)) (f26 ?v_0 ?v2))))))
(assert (forall ((?v0 S6) (?v1 S6)) (= (= (f15 f16 ?v0) (f15 f16 ?v1)) (= ?v0 ?v1))))
(assert (forall ((?v0 S6) (?v1 S6) (?v2 S9)) (= (f26 (f27 f31 (f29 f30 ?v0)) (f26 (f27 f40 (f29 f30 ?v1)) ?v2)) (f26 (f27 f40 (f29 f30 (f15 (f32 f35 ?v0) ?v1))) ?v2))))
(assert (forall ((?v0 S6) (?v1 S6) (?v2 S2)) (= (f5 (f6 f8 (f13 f14 ?v0)) (f5 (f6 f19 (f13 f14 ?v1)) ?v2)) (f5 (f6 f19 (f13 f14 (f15 (f32 f35 ?v0) ?v1))) ?v2))))
(assert (forall ((?v0 S6) (?v1 S6) (?v2 S6)) (= (f15 (f32 f35 (f15 f34 ?v0)) (f15 (f32 f39 (f15 f34 ?v1)) ?v2)) (f15 (f32 f39 (f15 f34 (f15 (f32 f35 ?v0) ?v1))) ?v2))))
(assert (forall ((?v0 S3) (?v1 S2) (?v2 S2)) (let ((?v_0 (f5 ?v0 ?v1)) (?v_1 (f6 f19 (f5 ?v0 ?v2)))) (let ((?v_2 (f6 f10 (f5 (f6 f7 (f5 ?v_1 ?v_0)) (f5 (f6 f19 ?v2) ?v1))))) (= (f5 (f6 f19 ?v_0) (f5 ?v_2 ?v1)) (f5 ?v_1 (f5 ?v_2 ?v2)))))))
(assert (forall ((?v0 S2) (?v1 S2)) (= (= (f5 f9 ?v0) (f5 f9 ?v1)) (= ?v0 ?v1))))
(assert (forall ((?v0 S9) (?v1 S9) (?v2 S9) (?v3 S9) (?v4 S9)) (let ((?v_0 (f27 f28 ?v0))) (= (f26 (f27 f36 (f26 (f27 f40 (f26 ?v_0 ?v1)) (f26 (f27 f28 ?v2) ?v3))) ?v4) (f26 (f27 f31 (f26 ?v_0 (f26 (f27 f36 (f26 (f27 f40 ?v1) ?v3)) ?v4))) (f26 (f27 f28 (f26 (f27 f36 (f26 (f27 f40 ?v0) ?v2)) ?v4)) ?v3))))))
(assert (forall ((?v0 S2) (?v1 S2) (?v2 S2) (?v3 S2) (?v4 S2)) (let ((?v_0 (f6 f10 ?v0))) (= (f5 (f6 f7 (f5 (f6 f19 (f5 ?v_0 ?v1)) (f5 (f6 f10 ?v2) ?v3))) ?v4) (f5 (f6 f8 (f5 ?v_0 (f5 (f6 f7 (f5 (f6 f19 ?v1) ?v3)) ?v4))) (f5 (f6 f10 (f5 (f6 f7 (f5 (f6 f19 ?v0) ?v2)) ?v4)) ?v3))))))
(assert (forall ((?v0 S2)) (= (= (f5 (f6 f8 ?v0) ?v0) f4) (= ?v0 f4))))
(assert (forall ((?v0 S6)) (= (= (f15 (f32 f35 ?v0) ?v0) f41) (= ?v0 f41))))
(assert (forall ((?v0 S6) (?v1 S6)) (= (= (f3 (f13 f14 ?v0) (f13 f14 ?v1)) f1) (= (f42 ?v0 ?v1) f1))))
(assert (forall ((?v0 S6) (?v1 S6)) (= (= (f42 (f15 f34 ?v0) (f15 f34 ?v1)) f1) (= (f42 ?v0 ?v1) f1))))
(assert (forall ((?v0 S6) (?v1 S6) (?v2 S2)) (= (f5 (f6 f10 (f13 f14 ?v0)) (f5 (f6 f10 (f13 f14 ?v1)) ?v2)) (f5 (f6 f10 (f13 f14 (f15 (f32 f33 ?v0) ?v1))) ?v2))))
(assert (forall ((?v0 S6) (?v1 S6) (?v2 S6)) (= (f15 (f32 f33 (f15 f34 ?v0)) (f15 (f32 f33 (f15 f34 ?v1)) ?v2)) (f15 (f32 f33 (f15 f34 (f15 (f32 f33 ?v0) ?v1))) ?v2))))
(assert (forall ((?v0 S6) (?v1 S6) (?v2 S9)) (= (f26 (f27 f28 (f29 f30 ?v0)) (f26 (f27 f28 (f29 f30 ?v1)) ?v2)) (f26 (f27 f28 (f29 f30 (f15 (f32 f33 ?v0) ?v1))) ?v2))))
(assert (forall ((?v0 S6) (?v1 S6)) (= (f5 (f6 f10 (f13 f14 ?v0)) (f13 f14 ?v1)) (f13 f14 (f15 (f32 f33 ?v0) ?v1)))))
(assert (forall ((?v0 S6) (?v1 S6)) (= (f15 (f32 f33 (f15 f34 ?v0)) (f15 f34 ?v1)) (f15 f34 (f15 (f32 f33 ?v0) ?v1)))))
(assert (forall ((?v0 S6) (?v1 S6)) (= (f26 (f27 f28 (f29 f30 ?v0)) (f29 f30 ?v1)) (f29 f30 (f15 (f32 f33 ?v0) ?v1)))))
(assert (forall ((?v0 S6) (?v1 S6)) (= (f13 f14 (f15 (f32 f33 ?v0) ?v1)) (f5 (f6 f10 (f13 f14 ?v0)) (f13 f14 ?v1)))))
(assert (forall ((?v0 S6) (?v1 S6)) (= (f15 f34 (f15 (f32 f33 ?v0) ?v1)) (f15 (f32 f33 (f15 f34 ?v0)) (f15 f34 ?v1)))))
(assert (forall ((?v0 S6) (?v1 S6)) (= (f29 f30 (f15 (f32 f33 ?v0) ?v1)) (f26 (f27 f28 (f29 f30 ?v0)) (f29 f30 ?v1)))))
(assert (forall ((?v0 S6) (?v1 S6) (?v2 S9)) (= (f26 (f27 f31 (f29 f30 ?v0)) (f26 (f27 f31 (f29 f30 ?v1)) ?v2)) (f26 (f27 f31 (f29 f30 (f15 (f32 f35 ?v0) ?v1))) ?v2))))
(assert (forall ((?v0 S6) (?v1 S6) (?v2 S2)) (= (f5 (f6 f8 (f13 f14 ?v0)) (f5 (f6 f8 (f13 f14 ?v1)) ?v2)) (f5 (f6 f8 (f13 f14 (f15 (f32 f35 ?v0) ?v1))) ?v2))))
(assert (forall ((?v0 S6) (?v1 S6) (?v2 S6)) (= (f15 (f32 f35 (f15 f34 ?v0)) (f15 (f32 f35 (f15 f34 ?v1)) ?v2)) (f15 (f32 f35 (f15 f34 (f15 (f32 f35 ?v0) ?v1))) ?v2))))
(assert (forall ((?v0 S6) (?v1 S6)) (= (f26 (f27 f31 (f29 f30 ?v0)) (f29 f30 ?v1)) (f29 f30 (f15 (f32 f35 ?v0) ?v1)))))
(assert (forall ((?v0 S6) (?v1 S6)) (= (f5 (f6 f8 (f13 f14 ?v0)) (f13 f14 ?v1)) (f13 f14 (f15 (f32 f35 ?v0) ?v1)))))
(assert (forall ((?v0 S6) (?v1 S6)) (= (f15 (f32 f35 (f15 f34 ?v0)) (f15 f34 ?v1)) (f15 f34 (f15 (f32 f35 ?v0) ?v1)))))
(assert (forall ((?v0 S6) (?v1 S6)) (= (f29 f30 (f15 (f32 f35 ?v0) ?v1)) (f26 (f27 f31 (f29 f30 ?v0)) (f29 f30 ?v1)))))
(assert (forall ((?v0 S6) (?v1 S6)) (= (f13 f14 (f15 (f32 f35 ?v0) ?v1)) (f5 (f6 f8 (f13 f14 ?v0)) (f13 f14 ?v1)))))
(assert (forall ((?v0 S6) (?v1 S6)) (= (f15 f34 (f15 (f32 f35 ?v0) ?v1)) (f15 (f32 f35 (f15 f34 ?v0)) (f15 f34 ?v1)))))
(assert (forall ((?v0 S6)) (= (= (f15 f17 ?v0) f18) false)))
(assert (forall ((?v0 S6)) (= (= f18 (f15 f17 ?v0)) false)))
(assert (forall ((?v0 S6) (?v1 S6)) (= (= (f15 f17 ?v0) (f15 f16 ?v1)) false)))
(assert (forall ((?v0 S6) (?v1 S6)) (= (= (f15 f16 ?v0) (f15 f17 ?v1)) false)))
(assert (forall ((?v0 S6)) (= (= (f15 f16 ?v0) f18) (= ?v0 f18))))
(assert (forall ((?v0 S6)) (= (= f18 (f15 f16 ?v0)) (= f18 ?v0))))
(assert (= (f15 f16 f18) f18))
(assert (forall ((?v0 S2) (?v1 S2)) (let ((?v_0 (f6 f10 ?v0))) (= (f5 (f6 f7 (f5 ?v_0 ?v1)) (f5 ?v_0 ?v0)) (f5 (f6 f7 ?v1) ?v0)))))
(assert (forall ((?v0 S2) (?v1 S2)) (=> (= (f3 ?v0 ?v1) f1) (= (f3 (f5 f9 ?v0) (f5 f9 ?v1)) f1))))
(assert (forall ((?v0 S2) (?v1 S2)) (= (= (f3 (f5 f9 ?v0) (f5 f9 ?v1)) f1) (= (f3 ?v0 ?v1) f1))))
(assert (forall ((?v0 S2)) (= (= (f5 f9 ?v0) f4) (= ?v0 f4))))
(assert (= (f5 f9 f4) f4))
(assert (forall ((?v0 S2) (?v1 S2)) (= (f5 f9 (f5 (f6 f10 ?v0) ?v1)) (f5 (f6 f10 (f5 f9 ?v0)) (f5 f9 ?v1)))))
(assert (forall ((?v0 S2) (?v1 S2)) (= (f5 f9 (f5 (f6 f7 ?v0) ?v1)) (f5 (f6 f7 (f5 f9 ?v0)) (f5 f9 ?v1)))))
(assert (forall ((?v0 S9) (?v1 S9) (?v2 S6)) (let ((?v_0 (f29 f30 ?v2))) (= (f26 (f27 f28 (f26 (f27 f31 ?v0) ?v1)) ?v_0) (f26 (f27 f31 (f26 (f27 f28 ?v0) ?v_0)) (f26 (f27 f28 ?v1) ?v_0))))))
(assert (forall ((?v0 S2) (?v1 S2) (?v2 S6)) (let ((?v_0 (f13 f14 ?v2))) (= (f5 (f6 f10 (f5 (f6 f8 ?v0) ?v1)) ?v_0) (f5 (f6 f8 (f5 (f6 f10 ?v0) ?v_0)) (f5 (f6 f10 ?v1) ?v_0))))))
(assert (forall ((?v0 S6) (?v1 S6) (?v2 S6)) (let ((?v_0 (f15 f34 ?v2))) (= (f15 (f32 f33 (f15 (f32 f35 ?v0) ?v1)) ?v_0) (f15 (f32 f35 (f15 (f32 f33 ?v0) ?v_0)) (f15 (f32 f33 ?v1) ?v_0))))))
(assert (forall ((?v0 S6) (?v1 S9) (?v2 S9)) (let ((?v_0 (f27 f28 (f29 f30 ?v0)))) (= (f26 ?v_0 (f26 (f27 f31 ?v1) ?v2)) (f26 (f27 f31 (f26 ?v_0 ?v1)) (f26 ?v_0 ?v2))))))
(assert (forall ((?v0 S6) (?v1 S2) (?v2 S2)) (let ((?v_0 (f6 f10 (f13 f14 ?v0)))) (= (f5 ?v_0 (f5 (f6 f8 ?v1) ?v2)) (f5 (f6 f8 (f5 ?v_0 ?v1)) (f5 ?v_0 ?v2))))))
(assert (forall ((?v0 S6) (?v1 S6) (?v2 S6)) (let ((?v_0 (f32 f33 (f15 f34 ?v0)))) (= (f15 ?v_0 (f15 (f32 f35 ?v1) ?v2)) (f15 (f32 f35 (f15 ?v_0 ?v1)) (f15 ?v_0 ?v2))))))
(assert (= (f13 f14 f18) f4))
(assert (= (f15 f34 f18) f41))
(assert (= (f29 f30 f18) f43))
(assert (= (f13 f14 f18) f4))
(assert (= (f15 f34 f18) f41))
(assert (= (f29 f30 f18) f43))
(assert (forall ((?v0 S9)) (= (f26 (f27 f31 (f29 f30 f18)) ?v0) ?v0)))
(assert (forall ((?v0 S2)) (= (f5 (f6 f8 (f13 f14 f18)) ?v0) ?v0)))
(assert (forall ((?v0 S6)) (= (f15 (f32 f35 (f15 f34 f18)) ?v0) ?v0)))
(assert (forall ((?v0 S9)) (= (f26 (f27 f31 ?v0) (f29 f30 f18)) ?v0)))
(assert (forall ((?v0 S2)) (= (f5 (f6 f8 ?v0) (f13 f14 f18)) ?v0)))
(assert (forall ((?v0 S6)) (= (f15 (f32 f35 ?v0) (f15 f34 f18)) ?v0)))
(assert (forall ((?v0 S2)) (=> (= (f3 f4 ?v0) f1) (=> (= (f5 f9 ?v0) f4) (= ?v0 f4)))))
(assert (forall ((?v0 S2)) (=> (= (f3 f4 ?v0) f1) (= (f3 f4 (f5 f9 ?v0)) f1))))
(assert (forall ((?v0 S2)) (= (= (f3 (f5 f9 ?v0) f4) f1) (= (f3 ?v0 f4) f1))))
(assert (forall ((?v0 S2)) (= (= (f3 f4 (f5 f9 ?v0)) f1) (= (f3 f4 ?v0) f1))))
(assert (forall ((?v0 S2) (?v1 S2)) (let ((?v_0 (f13 f14 (f15 f16 (f15 f17 f18))))) (= (f5 (f6 f19 (f5 (f6 f7 (f5 (f6 f8 ?v0) ?v1)) ?v_0)) ?v1) (f5 (f6 f7 (f5 (f6 f19 ?v0) ?v1)) ?v_0)))))
(assert (forall ((?v0 S2) (?v1 S2)) (let ((?v_0 (f13 f14 (f15 f16 (f15 f17 f18))))) (= (f5 (f6 f19 (f5 (f6 f7 (f5 (f6 f8 ?v0) ?v1)) ?v_0)) ?v0) (f5 (f6 f7 (f5 (f6 f19 ?v1) ?v0)) ?v_0)))))
(assert (forall ((?v0 S6)) (= (= (f3 (f13 f14 ?v0) f4) f1) (= (f42 ?v0 f18) f1))))
(assert (forall ((?v0 S6)) (= (= (f42 (f15 f34 ?v0) f41) f1) (= (f42 ?v0 f18) f1))))
(assert (forall ((?v0 S6)) (= (= (f3 f4 (f13 f14 ?v0)) f1) (= (f42 f18 ?v0) f1))))
(assert (forall ((?v0 S6)) (= (= (f42 f41 (f15 f34 ?v0)) f1) (= (f42 f18 ?v0) f1))))
(assert (forall ((?v0 S6)) (let ((?v_0 (f29 f30 ?v0))) (= (f29 f30 (f15 f16 ?v0)) (f26 (f27 f31 (f26 (f27 f31 f43) ?v_0)) ?v_0)))))
(assert (forall ((?v0 S6)) (let ((?v_0 (f13 f14 ?v0))) (= (f13 f14 (f15 f16 ?v0)) (f5 (f6 f8 (f5 (f6 f8 f4) ?v_0)) ?v_0)))))
(assert (forall ((?v0 S6)) (let ((?v_0 (f15 f34 ?v0))) (= (f15 f34 (f15 f16 ?v0)) (f15 (f32 f35 (f15 (f32 f35 f41) ?v_0)) ?v_0)))))
(assert (forall ((?v0 S2) (?v1 S6) (?v2 S2)) (let ((?v_0 (f13 f14 ?v1))) (= (= (f5 (f6 f7 ?v0) ?v_0) ?v2) (ite (not (= ?v_0 f4)) (= ?v0 (f5 (f6 f10 ?v2) ?v_0)) (= ?v2 f4))))))
(assert (forall ((?v0 S9) (?v1 S6) (?v2 S9)) (let ((?v_0 (f29 f30 ?v1))) (= (= (f26 (f27 f36 ?v0) ?v_0) ?v2) (ite (not (= ?v_0 f43)) (= ?v0 (f26 (f27 f28 ?v2) ?v_0)) (= ?v2 f43))))))
(assert (forall ((?v0 S2) (?v1 S2) (?v2 S6)) (let ((?v_0 (f13 f14 ?v2))) (= (= (f5 (f6 f7 ?v0) ?v1) ?v_0) (ite (not (= ?v1 f4)) (= ?v0 (f5 (f6 f10 ?v_0) ?v1)) (= ?v_0 f4))))))
(assert (forall ((?v0 S9) (?v1 S9) (?v2 S6)) (let ((?v_0 (f29 f30 ?v2))) (= (= (f26 (f27 f36 ?v0) ?v1) ?v_0) (ite (not (= ?v1 f43)) (= ?v0 (f26 (f27 f28 ?v_0) ?v1)) (= ?v_0 f43))))))
(assert (forall ((?v0 S6) (?v1 S2) (?v2 S2)) (let ((?v_0 (f13 f14 ?v0))) (= (= ?v_0 (f5 (f6 f7 ?v1) ?v2)) (ite (not (= ?v2 f4)) (= (f5 (f6 f10 ?v_0) ?v2) ?v1) (= ?v_0 f4))))))
(assert (forall ((?v0 S6) (?v1 S9) (?v2 S9)) (let ((?v_0 (f29 f30 ?v0))) (= (= ?v_0 (f26 (f27 f36 ?v1) ?v2)) (ite (not (= ?v2 f43)) (= (f26 (f27 f28 ?v_0) ?v2) ?v1) (= ?v_0 f43))))))
(assert (forall ((?v0 S2) (?v1 S2) (?v2 S6)) (let ((?v_0 (f13 f14 ?v2))) (= (= ?v0 (f5 (f6 f7 ?v1) ?v_0)) (ite (not (= ?v_0 f4)) (= (f5 (f6 f10 ?v0) ?v_0) ?v1) (= ?v0 f4))))))
(assert (forall ((?v0 S9) (?v1 S9) (?v2 S6)) (let ((?v_0 (f29 f30 ?v2))) (= (= ?v0 (f26 (f27 f36 ?v1) ?v_0)) (ite (not (= ?v_0 f43)) (= (f26 (f27 f28 ?v0) ?v_0) ?v1) (= ?v0 f43))))))
(assert (forall ((?v0 S2)) (= (f5 (f6 f7 ?v0) (f13 f14 f18)) f4)))
(assert (forall ((?v0 S9)) (= (f26 (f27 f36 ?v0) (f29 f30 f18)) f43)))
(assert (forall ((?v0 S2)) (= (f5 (f6 f10 (f13 f14 (f15 f17 f18))) ?v0) ?v0)))
(assert (forall ((?v0 S6)) (= (f15 (f32 f33 (f15 f34 (f15 f17 f18))) ?v0) ?v0)))
(assert (forall ((?v0 S9)) (= (f26 (f27 f28 (f29 f30 (f15 f17 f18))) ?v0) ?v0)))
(assert (= (f3 (f5 f44 f11) (f20 f21 (f22 (f23 f24 f11) f12))) f1))
(assert (forall ((?v0 S9) (?v1 S9) (?v2 S9) (?v3 S9)) (= (f3 (f20 f21 (f26 (f27 f40 (f26 (f27 f31 ?v0) ?v1)) (f26 (f27 f31 ?v2) ?v3))) (f5 (f6 f8 (f20 f21 (f26 (f27 f40 ?v0) ?v2))) (f20 f21 (f26 (f27 f40 ?v1) ?v3)))) f1)))
(assert (forall ((?v0 S2) (?v1 S2) (?v2 S2) (?v3 S2)) (= (f3 (f5 f45 (f5 (f6 f19 (f5 (f6 f8 ?v0) ?v1)) (f5 (f6 f8 ?v2) ?v3))) (f5 (f6 f8 (f5 f45 (f5 (f6 f19 ?v0) ?v2))) (f5 f45 (f5 (f6 f19 ?v1) ?v3)))) f1)))
(assert (forall ((?v0 S2) (?v1 S2) (?v2 S2)) (=> (= (f3 ?v0 f4) f1) (=> (= (f3 (f5 f45 ?v1) (f5 (f6 f10 ?v0) (f5 f45 ?v2))) f1) (= ?v1 f4)))))
(assert (forall ((?v0 S2) (?v1 S9) (?v2 S9)) (=> (= (f3 ?v0 f4) f1) (=> (= (f3 (f20 f21 ?v1) (f5 (f6 f10 ?v0) (f20 f21 ?v2))) f1) (= ?v1 f43)))))
(assert (forall ((?v0 S2) (?v1 S2) (?v2 S2) (?v3 S2)) (let ((?v_0 (f6 f10 ?v0)) (?v_1 (f6 f10 ?v1))) (= (f26 (f27 f28 (f22 (f23 f24 ?v0) ?v1)) (f22 (f23 f24 ?v2) ?v3)) (f22 (f23 f24 (f5 (f6 f19 (f5 ?v_0 ?v2)) (f5 ?v_1 ?v3))) (f5 (f6 f8 (f5 ?v_0 ?v3)) (f5 ?v_1 ?v2)))))))
(assert (forall ((?v0 S2) (?v1 S2)) (= (f3 (f5 (f6 f19 (f5 f45 ?v0)) (f5 f45 ?v1)) (f5 f45 (f5 (f6 f19 ?v0) ?v1))) f1)))
(assert (forall ((?v0 S9) (?v1 S9)) (= (f3 (f5 (f6 f19 (f20 f21 ?v0)) (f20 f21 ?v1)) (f20 f21 (f26 (f27 f40 ?v0) ?v1))) f1)))
(assert (forall ((?v0 S9) (?v1 S9)) (= (f3 (f5 (f6 f19 (f20 f21 ?v0)) (f20 f21 ?v1)) (f20 f21 (f26 (f27 f31 ?v0) ?v1))) f1)))
(assert (forall ((?v0 S2) (?v1 S2)) (= (f3 (f5 (f6 f19 (f5 f45 ?v0)) (f5 f45 ?v1)) (f5 f45 (f5 (f6 f8 ?v0) ?v1))) f1)))
(assert (forall ((?v0 S2) (?v1 S2)) (= (f3 (f5 f45 (f5 (f6 f19 ?v0) ?v1)) (f5 (f6 f8 (f5 f45 ?v0)) (f5 f45 ?v1))) f1)))
(assert (forall ((?v0 S9) (?v1 S9)) (= (f3 (f20 f21 (f26 (f27 f40 ?v0) ?v1)) (f5 (f6 f8 (f20 f21 ?v0)) (f20 f21 ?v1))) f1)))
(assert (forall ((?v0 S9) (?v1 S9)) (= (f3 (f20 f21 (f26 (f27 f31 ?v0) ?v1)) (f5 (f6 f8 (f20 f21 ?v0)) (f20 f21 ?v1))) f1)))
(assert (forall ((?v0 S2) (?v1 S2)) (= (f3 (f5 f45 (f5 (f6 f8 ?v0) ?v1)) (f5 (f6 f8 (f5 f45 ?v0)) (f5 f45 ?v1))) f1)))
(assert (forall ((?v0 S2) (?v1 S2)) (=> (not (= ?v0 f4)) (= (f5 f45 (f5 (f6 f7 ?v1) ?v0)) (f5 (f6 f7 (f5 f45 ?v1)) (f5 f45 ?v0))))))
(assert (forall ((?v0 S9) (?v1 S9)) (=> (not (= ?v0 f43)) (= (f20 f21 (f26 (f27 f36 ?v1) ?v0)) (f5 (f6 f7 (f20 f21 ?v1)) (f20 f21 ?v0))))))
(assert (forall ((?v0 S2) (?v1 S2)) (= (f3 (f5 f45 (f5 (f6 f10 ?v0) ?v1)) (f5 (f6 f10 (f5 f45 ?v0)) (f5 f45 ?v1))) f1)))
(assert (forall ((?v0 S9) (?v1 S9)) (= (f3 (f20 f21 (f26 (f27 f28 ?v0) ?v1)) (f5 (f6 f10 (f20 f21 ?v0)) (f20 f21 ?v1))) f1)))
(assert (=> (forall ((?v0 S2) (?v1 S2)) (=> (= f37 (f22 (f23 f24 ?v0) ?v1)) false)) false))
(assert (forall ((?v0 S6)) (= (f42 ?v0 ?v0) f1)))
(assert (forall ((?v0 S2)) (= (f5 f45 ?v0) (f5 f44 ?v0))))
(assert (forall ((?v0 S6)) (= (f15 (f32 f35 f41) ?v0) ?v0)))
(assert (forall ((?v0 S6)) (= (f15 (f32 f35 ?v0) f41) ?v0)))
(assert (forall ((?v0 S6) (?v1 S6)) (= (f15 (f32 f35 ?v0) ?v1) (f15 (f32 f35 ?v1) ?v0))))
(assert (forall ((?v0 S6) (?v1 S6)) (= (f15 (f32 f33 ?v0) ?v1) (f15 (f32 f33 ?v1) ?v0))))
(assert (forall ((?v0 S6) (?v1 S6)) (or (= (f42 ?v0 ?v1) f1) (= (f42 ?v1 ?v0) f1))))
(assert (forall ((?v0 S6) (?v1 S6) (?v2 S6)) (let ((?v_1 (f32 f35 ?v0)) (?v_0 (f32 f35 ?v1))) (= (f15 ?v_1 (f15 ?v_0 ?v2)) (f15 ?v_0 (f15 ?v_1 ?v2))))))
(assert (forall ((?v0 S6) (?v1 S6) (?v2 S6)) (let ((?v_0 (f32 f33 ?v0))) (= (f15 ?v_0 (f15 (f32 f35 ?v1) ?v2)) (f15 (f32 f35 (f15 ?v_0 ?v1)) (f15 ?v_0 ?v2))))))
(assert (forall ((?v0 S6) (?v1 S6) (?v2 S6)) (let ((?v_0 (f32 f33 ?v0))) (= (f15 ?v_0 (f15 (f32 f39 ?v1) ?v2)) (f15 (f32 f39 (f15 ?v_0 ?v1)) (f15 ?v_0 ?v2))))))
(assert (forall ((?v0 S6) (?v1 S6)) (= (f15 (f32 f35 (f15 f34 ?v0)) (f15 f34 ?v1)) (f15 f34 (f15 (f32 f35 ?v0) ?v1)))))
(assert (forall ((?v0 S6) (?v1 S6)) (= (f15 (f32 f33 (f15 f34 ?v0)) (f15 f34 ?v1)) (f15 f34 (f15 (f32 f33 ?v0) ?v1)))))
(assert (forall ((?v0 S6) (?v1 S6)) (= (= (f42 (f15 f34 ?v0) (f15 f34 ?v1)) f1) (= (f42 ?v0 ?v1) f1))))
(assert (forall ((?v0 S6) (?v1 S6) (?v2 S6)) (let ((?v_0 (f32 f35 ?v0))) (= (f15 (f32 f35 (f15 ?v_0 ?v1)) ?v2) (f15 ?v_0 (f15 (f32 f35 ?v1) ?v2))))))
(assert (forall ((?v0 S6) (?v1 S6) (?v2 S6)) (let ((?v_0 (f32 f33 ?v0))) (= (f15 (f32 f33 (f15 ?v_0 ?v1)) ?v2) (f15 ?v_0 (f15 (f32 f33 ?v1) ?v2))))))
(assert (forall ((?v0 S6) (?v1 S6) (?v2 S6)) (= (f15 (f32 f33 (f15 (f32 f35 ?v0) ?v1)) ?v2) (f15 (f32 f35 (f15 (f32 f33 ?v0) ?v2)) (f15 (f32 f33 ?v1) ?v2)))))
(assert (forall ((?v0 S6) (?v1 S6) (?v2 S6)) (= (f15 (f32 f33 (f15 (f32 f39 ?v0) ?v1)) ?v2) (f15 (f32 f39 (f15 (f32 f33 ?v0) ?v2)) (f15 (f32 f33 ?v1) ?v2)))))
(assert (forall ((?v0 S6) (?v1 S6) (?v2 S6)) (let ((?v_0 (f32 f35 ?v2))) (=> (= (f42 ?v0 ?v1) f1) (= (f42 (f15 ?v_0 ?v0) (f15 ?v_0 ?v1)) f1)))))
(assert (forall ((?v0 S6) (?v1 S6) (?v2 S6)) (=> (= (f42 ?v0 ?v1) f1) (=> (= (f42 ?v1 ?v2) f1) (= (f42 ?v0 ?v2) f1)))))
(assert (forall ((?v0 S6) (?v1 S6)) (=> (= (f42 ?v0 ?v1) f1) (=> (= (f42 ?v1 ?v0) f1) (= ?v0 ?v1)))))
(assert (forall ((?v0 S9)) (let ((?v_0 (f20 f21 ?v0))) (= (f5 f44 ?v_0) ?v_0))))
(assert (forall ((?v0 S2)) (let ((?v_0 (f5 f45 ?v0))) (= (f5 f44 ?v_0) ?v_0))))
(assert (forall ((?v0 S6)) (= (f15 (f32 f39 ?v0) f18) ?v0)))
(assert (forall ((?v0 S6) (?v1 S6)) (= (f15 (f32 f39 (f15 f16 ?v0)) (f15 f16 ?v1)) (f15 f16 (f15 (f32 f39 ?v0) ?v1)))))
(assert (forall ((?v0 S6) (?v1 S6)) (= (= (f42 (f15 f17 ?v0) (f15 f17 ?v1)) f1) (= (f42 ?v0 ?v1) f1))))
(assert (forall ((?v0 S6) (?v1 S6)) (= (= (f42 (f15 f17 ?v0) (f15 f17 ?v1)) f1) (= (f42 ?v0 ?v1) f1))))
(assert (= (= (f42 f18 f18) f1) true))
(assert (forall ((?v0 S6) (?v1 S6)) (= (= (f42 (f15 f16 ?v0) (f15 f16 ?v1)) f1) (= (f42 ?v0 ?v1) f1))))
(assert (forall ((?v0 S6) (?v1 S6)) (= (= (f42 (f15 f16 ?v0) (f15 f16 ?v1)) f1) (= (f42 ?v0 ?v1) f1))))
(assert (= f18 f41))
(assert (= f41 (f15 f34 f18)))
(assert (forall ((?v0 S2) (?v1 S2) (?v2 S2) (?v3 S2)) (= (f26 (f27 f40 (f22 (f23 f24 ?v0) ?v1)) (f22 (f23 f24 ?v2) ?v3)) (f22 (f23 f24 (f5 (f6 f19 ?v0) ?v2)) (f5 (f6 f19 ?v1) ?v3)))))
(assert (= f43 (f22 (f23 f24 f4) f4)))
(assert (forall ((?v0 S2) (?v1 S2)) (= (= (f22 (f23 f24 ?v0) ?v1) f43) (and (= ?v0 f4) (= ?v1 f4)))))
(check-sat)
(exit)
